(set-info :origin "driver benchmark extracted from Microsoft SDV")
(set-logic HORN)
(declare-fun Proc34 (Int Int Int Bool Int) Bool)
(declare-fun Proc24 (Int Int Int Bool Int) Bool)
(declare-fun Proc13 (Int Int Int Bool Int Int) Bool)
(declare-fun Proc37 (Int Int Int Bool) Bool)
(declare-fun Proc20 (Int Int Int Bool Int Int) Bool)
(declare-fun Proc41 (Int Int Int Bool) Bool)
(declare-fun Proc42 (Int Int Int Bool Int Int) Bool)
(declare-fun Proc16 (Int Int Int Bool Int Int Int) Bool)
(declare-fun Proc23 (Int Int Int Bool Int Int Int Bool Int) Bool)
(declare-fun Proc21 (Int Int Int Bool Int) Bool)
(declare-fun Proc22 (Int Int Int Bool Int Int) Bool)
(declare-fun Proc17 (Int Int Int Bool Int Int Int) Bool)
(declare-fun Proc48 (Int Int Int Bool Int Int Int) Bool)
(declare-fun Proc32 (Int Int Int Bool Int) Bool)
(declare-fun Proc40 (Int Int Int Bool Int) Bool)
(declare-fun Proc25 (Int Int Int Bool Int) Bool)
(declare-fun Proc39 (Int Int Int Bool Int Int Int Int Int) Bool)
(declare-fun Proc12 (Int Int Int Bool Int Int Int) Bool)
(declare-fun Proc5 (Int Int Int Bool Int Int Int Int Int) Bool)
(declare-fun Proc31 (Int Int Int Bool Int) Bool)
(declare-fun Proc38 (Int Int Int Bool) Bool)
(declare-fun Proc50 (Int Int Int Bool Int Bool Int Int Int) Bool)
(declare-fun Proc18 (Int Int Int Bool) Bool)
(declare-fun Proc1 (Int Int Int Bool Int Int Int) Bool)
(declare-fun Proc43 (Int Int Int Bool Int) Bool)
(declare-fun Proc0 (Int Int Int Bool Int Int) Bool)
(declare-fun Proc14 (Int Int Int Bool Int Int Int) Bool)
(declare-fun Proc9 (Int Int Int Bool Int Int Int) Bool)
(declare-fun Proc27 (Int Int Int Bool Int) Bool)
(declare-fun Proc33 (Int Int Int Bool Int) Bool)
(declare-fun Proc45 (Int Int Int Bool) Bool)
(declare-fun Proc10 (Int Int Int Bool Int Int Int Int Int) Bool)
(declare-fun Proc6 (Int Int Int Bool Int) Bool)
(declare-fun Proc49 (Int Int Int Bool) Bool)
(declare-fun Proc30 (Int Int Int Bool Int) Bool)
(declare-fun Proc8 (Int Int Int Bool Int Int Int) Bool)
(declare-fun Proc11 (Int Int Int Bool Int Int Int) Bool)
(declare-fun Proc4 (Int Int Int Bool Int Int Int) Bool)
(declare-fun Proc29 (Int Int Int Bool Int) Bool)
(declare-fun Proc44 (Int Int Int Bool Int Int Int Int Int) Bool)
(declare-fun Proc15 (Int Int Int Bool Int Int Int) Bool)
(declare-fun Proc36 (Int Int Int Bool Int) Bool)
(declare-fun Proc46 (Int Int Int Bool) Bool)
(declare-fun Proc2 (Int Int Int Bool Int Int Int Int Int) Bool)
(declare-fun Proc35 (Int Int Int Bool Int) Bool)
(declare-fun Proc26 (Int Int Int Bool Int) Bool)
(declare-fun Proc47 (Int Int Int Bool Int Int) Bool)
(declare-fun Proc19 (Int Int Int Bool) Bool)
(declare-fun Proc7 (Int Int Int Bool Int) Bool)
(declare-fun Proc28 (Int Int Int Bool Int) Bool)
(declare-fun Proc3 (Int Int Int Bool) Bool)
(assert (forall ((A Int)
         (B Int)
         (C Int)
         (D Int)
         (E Int)
         (F Int)
         (G Int)
         (H Int)
         (I Int)
         (J Int)
         (K Int)
         (L Int)
         (M Int)
         (N Int)
         (O Int)
         (P Int)
         (Q Int)
         (R Int)
         (S Int)
         (T Int)
         (U Int)
         (V Int)
         (W Int)
         (X Int)
         (Y Int)
         (Z Bool))
  (let ((a!1 (and (not (<= W (+ 24 Y))) (not (<= W X))))
        (a!2 (and (not (<= U (+ 1 V))) (not (<= U W))))
        (a!3 (and (not (<= S (+ 1 T))) (not (<= S U))))
        (a!4 (and (not (<= K (+ 1 L))) (not (<= K S))))
        (a!5 (not (and (= D H) (= C F) (= B E)))))
  (let ((a!6 (or (not (= I 1)) (not (= H G)) (not (and (= F J) (= E I))) a!5))
        (a!7 (or (= I 1) (not (= H G)) (not (and (= F J) (= E I))) a!5)))
  (let ((a!8 (not (or (not Z)
                      (not (= Y X))
                      (not a!1)
                      (not (= V W))
                      (not a!2)
                      (not (= T U))
                      (not a!3)
                      (<= R 27)
                      (= Q 0)
                      (= P 0)
                      (= O 0)
                      (not (Proc0 S N M Z Y 20))
                      (not (= L S))
                      (not a!4)
                      (not (Proc1 K N M Z L J I))
                      (and a!6 a!7)))))
    (=> a!8 (Proc2 X N M Z Q A D C B)))))))
(assert (forall ((A Int)
         (B Int)
         (C Int)
         (D Int)
         (E Int)
         (F Int)
         (G Int)
         (H Int)
         (I Int)
         (J Int)
         (K Int)
         (L Int)
         (Z Bool))
  (let ((a!1 (and (not (<= G (+ 1 H))) (not (<= G L))))
        (a!2 (not (and (= D 0) (= C F) (= B E)))))
  (let ((a!3 (and (or (not (= E 1)) a!2) (or (= E 1) a!2))))
  (let ((a!4 (not (or (not Z)
                      (not (Proc3 L K J Z))
                      (= I 0)
                      (not (= H L))
                      (not a!1)
                      (not (Proc4 G K J Z H F E))
                      a!3))))
    (=> a!4 (Proc5 L K J Z A I D C B)))))))
(assert (forall ((A Int)
         (B Int)
         (C Int)
         (D Int)
         (E Int)
         (F Int)
         (G Int)
         (H Int)
         (I Int)
         (J Int)
         (K Int)
         (L Int)
         (M Int)
         (N Int)
         (O Int)
         (Z Bool))
  (let ((a!1 (and (not (<= F (+ 1 G))) (not (<= F O))))
        (a!2 (not (and (= C H) (= B E) (= A D)))))
  (let ((a!3 (and (or (not (= D 1)) a!2) (or (= D 1) a!2))))
  (let ((a!4 (not (or (not Z)
                      (not (Proc6 O N M Z L))
                      (not (Proc7 O N M Z L))
                      (= K 0)
                      (= J 0)
                      (not (Proc8 O N M Z I L H))
                      (not (= G O))
                      (not a!1)
                      (not (Proc9 F N M Z G E D))
                      a!3))))
    (=> a!4 (Proc10 O N M Z K L C B A)))))))
(assert (forall ((A Int)
         (B Int)
         (C Int)
         (D Int)
         (E Int)
         (F Int)
         (G Int)
         (H Int)
         (I Int)
         (J Int)
         (Z Bool))
  (let ((a!1 (and (not (<= F (+ 1 G))) (not (<= F J))))
        (a!2 (or (not (= D 1)) (not (and (= C E) (= B D)))))
        (a!3 (or (= D 1) (not (and (= C E) (= B D))))))
  (let ((a!4 (not (or (not Z)
                      (not (Proc3 J I H Z))
                      (not (= G J))
                      (not a!1)
                      (not (Proc11 F I H Z G E D))
                      (and a!2 a!3)))))
    (=> a!4 (Proc12 J I H Z A C B))))))
(assert (forall ((A Int) (B Int) (C Int) (D Int) (E Int) (F Int) (Z Bool))
  (let ((a!1 (not (or (not Z) (= F 0) (not (= E 259))))))
    (=> a!1 (Proc8 D C B Z A F E)))))
(assert (forall ((A Int) (B Int) (C Int) (D Int) (Z Bool)) (=> Z (Proc6 D C B Z A))))
(assert (forall ((A Int)
         (B Int)
         (C Int)
         (D Int)
         (E Int)
         (F Int)
         (G Int)
         (H Int)
         (I Int)
         (Z Bool))
  (let ((a!1 (and (not (<= G (+ 1 I))) (not (<= G H)))))
  (let ((a!2 (or (not Z)
                 (not (= I H))
                 (not a!1)
                 (not (Proc13 G F E Z I D))
                 (not (and (= C G) (= B D))))))
    (=> (not a!2) (Proc14 H F E Z A C B))))))
(assert (forall ((A Int)
         (B Int)
         (C Int)
         (D Int)
         (E Int)
         (F Int)
         (G Int)
         (H Int)
         (I Int)
         (Z Bool))
  (let ((a!1 (and (not (<= G (+ 1 I))) (not (<= G H)))))
  (let ((a!2 (or (not Z)
                 (not (= I H))
                 (not a!1)
                 (not (Proc13 G F E Z I D))
                 (not (and (= C G) (= B D))))))
    (=> (not a!2) (Proc15 H F E Z A C B))))))
(assert (forall ((A Int)
         (B Int)
         (C Int)
         (D Int)
         (E Int)
         (F Int)
         (G Int)
         (H Int)
         (I Int)
         (Z Bool))
  (let ((a!1 (and (not (<= G (+ 1 I))) (not (<= G H)))))
  (let ((a!2 (or (not Z)
                 (not (= I H))
                 (not a!1)
                 (not (Proc13 G F E Z I D))
                 (not (and (= C G) (= B D))))))
    (=> (not a!2) (Proc16 H F E Z A C B))))))
(assert (forall ((A Int)
         (B Int)
         (C Int)
         (D Int)
         (E Int)
         (F Int)
         (G Int)
         (H Int)
         (I Int)
         (Z Bool))
  (let ((a!1 (and (not (<= G (+ 1 I))) (not (<= G H)))))
  (let ((a!2 (or (not Z)
                 (not (= I H))
                 (not a!1)
                 (not (Proc13 G F E Z I D))
                 (not (and (= C G) (= B D))))))
    (=> (not a!2) (Proc17 H F E Z A C B))))))
(assert (forall ((A Int)
         (B Int)
         (C Int)
         (D Int)
         (E Int)
         (F Int)
         (G Int)
         (H Int)
         (I Int)
         (J Int)
         (Z Bool))
  (let ((a!1 (or (not (= E 1))
                 (not (and (= D E) (= C F)))
                 (not (and (= B C) (= A D)))))
        (a!2 (or (= E 1)
                 (not (and (= D E) (= C F)))
                 (not (and (= B C) (= A D)))))
        (a!3 (or (not (= J 0))
                 (not (and (= D H) (= C I)))
                 (not (and (= B C) (= A D))))))
  (let ((a!4 (and (or (= J 0) (not (Proc16 I J H Z G F E)) (and a!1 a!2)) a!3)))
    (=> (not (or (not Z) a!4)) (Proc1 I J H Z G B A))))))
(assert (forall ((A Int) (B Int) (C Int) (D Int) (E Int) (Z Bool))
  (let ((a!1 (not (or (not Z) (not (= E 1))))))
    (=> a!1 (Proc13 D C B Z A E)))))
(assert (forall ((A Int)
         (B Int)
         (C Int)
         (D Int)
         (E Int)
         (F Int)
         (G Int)
         (H Int)
         (I Int)
         (J Int)
         (Z Bool))
  (let ((a!1 (or (not (= E 1))
                 (not (and (= D E) (= C F)))
                 (not (and (= B C) (= A D)))))
        (a!2 (or (= E 1)
                 (not (and (= D E) (= C F)))
                 (not (and (= B C) (= A D)))))
        (a!3 (or (not (= J 0))
                 (not (and (= D H) (= C I)))
                 (not (and (= B C) (= A D))))))
  (let ((a!4 (and (or (= J 0) (not (Proc15 I J H Z G F E)) (and a!1 a!2)) a!3)))
    (=> (not (or (not Z) a!4)) (Proc4 I J H Z G B A))))))
(assert (forall ((A Int)
         (B Int)
         (C Int)
         (D Int)
         (E Int)
         (F Int)
         (G Int)
         (H Int)
         (I Int)
         (J Int)
         (Z Bool))
  (let ((a!1 (or (not (= E 1))
                 (not (and (= D E) (= C F)))
                 (not (and (= B C) (= A D)))))
        (a!2 (or (= E 1)
                 (not (and (= D E) (= C F)))
                 (not (and (= B C) (= A D)))))
        (a!3 (or (not (= J 0))
                 (not (and (= D H) (= C I)))
                 (not (and (= B C) (= A D))))))
  (let ((a!4 (and (or (= J 0) (not (Proc14 I J H Z G F E)) (and a!1 a!2)) a!3)))
    (=> (not (or (not Z) a!4)) (Proc9 I J H Z G B A))))))
(assert (forall ((A Int)
         (B Int)
         (C Int)
         (D Int)
         (E Int)
         (F Int)
         (G Int)
         (H Int)
         (I Int)
         (J Int)
         (Z Bool))
  (let ((a!1 (or (not (= E 1))
                 (not (and (= D E) (= C F)))
                 (not (and (= B C) (= A D)))))
        (a!2 (or (= E 1)
                 (not (and (= D E) (= C F)))
                 (not (and (= B C) (= A D)))))
        (a!3 (or (not (= J 0))
                 (not (and (= D H) (= C I)))
                 (not (and (= B C) (= A D))))))
  (let ((a!4 (and (or (= J 0) (not (Proc17 I J H Z G F E)) (and a!1 a!2)) a!3)))
    (=> (not (or (not Z) a!4)) (Proc11 I J H Z G B A))))))
(assert (forall ((A Int) (B Int) (C Int) (Z Bool)) (=> Z (Proc18 C B A Z))))
(assert (forall ((A Int) (B Int) (C Int) (Z Bool)) (=> Z (Proc19 C B A Z))))
(assert (forall ((A Int) (B Int) (C Int) (D Int) (E Int) (Z Bool))
  (let ((a!1 (or (not Z) (not (and (= E 0) (= D 0))))))
    (=> (not a!1) (Proc20 C B A Z E D)))))
(assert (forall ((A Int)
         (B Int)
         (C Int)
         (D Int)
         (E Int)
         (F Int)
         (G Int)
         (H Int)
         (I Int)
         (J Int)
         (K Int)
         (L Int)
         (M Int)
         (N Int)
         (O Int)
         (Z Bool)
         (A1 Bool)
         (B1 Bool)
         (C1 Bool))
  (let ((a!1 (not (and (not (<= O 0)) (Proc21 O N M C1 L))))
        (a!2 (not (and (= E G) (= D K) (= C H) (= A1 B1) (= B I)))))
  (let ((a!3 (or (= H 0) (not (and (= G F) (not B1))) a!2))
        (a!4 (or (not (and (= H 0) (= Z C1))) (not (and (= G A) (= B1 Z))) a!2)))
  (let ((a!5 (and (or (= H 1) (and a!3 a!4)) (or (not (= H 1)) (and a!3 a!4)))))
  (let ((a!6 (not (or (not C1)
                      a!1
                      (not (Proc20 L N M C1 K J))
                      (not (Proc19 L K J C1))
                      (not (Proc18 L K J C1))
                      (not (Proc22 L K J C1 I H))
                      a!5))))
    (=> a!6 (Proc23 O N M C1 E D C A1 B))))))))
(assert (forall ((A Int) (B Int) (C Int) (D Int) (Z Bool))
  (let ((a!1 (not (or (not Z) (not (= D 1))))))
    (=> a!1 (Proc24 C B A Z D)))))
(assert (forall ((A Int) (B Int) (C Int) (D Int) (Z Bool))
  (let ((a!1 (not (or (not Z) (not (= D 0))))))
    (=> a!1 (Proc25 C B A Z D)))))
(assert (forall ((A Int) (B Int) (C Int) (D Int) (Z Bool))
  (let ((a!1 (not (or (not Z) (not (= D 1))))))
    (=> a!1 (Proc26 C B A Z D)))))
(assert (forall ((A Int) (B Int) (C Int) (D Int) (Z Bool))
  (let ((a!1 (not (or (not Z) (not (= D 0))))))
    (=> a!1 (Proc27 C B A Z D)))))
(assert (forall ((A Int) (B Int) (C Int) (D Int) (Z Bool))
  (let ((a!1 (not (or (not Z) (not (= D 1))))))
    (=> a!1 (Proc28 C B A Z D)))))
(assert (forall ((A Int) (B Int) (C Int) (D Int) (Z Bool))
  (let ((a!1 (not (or (not Z) (not (= D 0))))))
    (=> a!1 (Proc29 C B A Z D)))))
(assert (forall ((A Int) (B Int) (C Int) (D Int) (Z Bool))
  (let ((a!1 (not (or (not Z) (not (= D 0))))))
    (=> a!1 (Proc30 C B A Z D)))))
(assert (forall ((A Int) (B Int) (C Int) (D Int) (Z Bool))
  (let ((a!1 (not (or (not Z) (not (= D 1))))))
    (=> a!1 (Proc31 C B A Z D)))))
(assert (forall ((A Int) (B Int) (C Int) (D Int) (Z Bool))
  (let ((a!1 (not (or (not Z) (not (= D 0))))))
    (=> a!1 (Proc32 C B A Z D)))))
(assert (forall ((A Int) (B Int) (C Int) (D Int) (Z Bool))
  (let ((a!1 (not (or (not Z) (not (= D 0))))))
    (=> a!1 (Proc33 C B A Z D)))))
(assert (forall ((A Int) (B Int) (C Int) (D Int) (Z Bool))
  (let ((a!1 (not (or (not Z) (not (= D 0))))))
    (=> a!1 (Proc34 C B A Z D)))))
(assert (forall ((A Int) (B Int) (C Int) (D Int) (E Int) (Z Bool))
  (let ((a!1 (or (not Z) (not (= E (- 1073741823))) (not (= D E)))))
    (=> (not a!1) (Proc35 C B A Z D)))))
(assert (forall ((A Int) (B Int) (C Int) (D Int) (Z Bool))
  (let ((a!1 (not (or (not Z) (not (= D 0))))))
    (=> a!1 (Proc36 C B A Z D)))))
(assert (forall ((A Int) (B Int) (C Int) (D Int) (Z Bool)) (=> Z (Proc7 D C B Z A))))
(assert (forall ((A Int) (B Int) (C Int) (D Int) (E Int) (Z Bool))
  (=> Z (Proc0 E D C Z B A))))
(assert (forall ((A Int)
         (B Int)
         (C Int)
         (D Int)
         (E Int)
         (F Int)
         (G Int)
         (H Int)
         (I Int)
         (J Int)
         (K Int)
         (L Int)
         (M Int)
         (Z Bool))
  (let ((a!1 (not (and (= C E) (= B G) (= A F)))))
  (let ((a!2 (or (not (and (= F 1) (= E D))) a!1)))
  (let ((a!3 (and a!2 (or (= F 1) (not (Proc38 G L F Z)) (not (= E H)) a!1))))
  (let ((a!4 (not (or (not Z)
                      (not (Proc37 M L K Z))
                      (not (Proc5 M L K Z J I H G F))
                      a!3))))
    (=> a!4 (Proc39 M L K Z J I C B A))))))))
(assert (forall ((A Int)
         (B Int)
         (C Int)
         (D Int)
         (E Int)
         (F Int)
         (G Int)
         (H Int)
         (I Int)
         (J Int)
         (K Int)
         (L Int)
         (M Int)
         (N Int)
         (O Int)
         (P Int)
         (Q Int)
         (R Int)
         (S Int)
         (T Int)
         (U Int)
         (V Int)
         (W Int)
         (X Int)
         (Y Int)
         (Z Bool)
         (D1 Int)
         (E1 Int)
         (F1 Int)
         (G1 Int)
         (H1 Int)
         (I1 Int)
         (J1 Int)
         (K1 Int)
         (L1 Int)
         (M1 Int)
         (N1 Int)
         (O1 Int))
  (let ((a!1 (not (and (= Y E1) (= X D1) (= W F1))))
        (a!16 (not (and (not (= G 1)) (= I1 I) (= H1 G) (= G1 H)))))
  (let ((a!2 (or (= K1 0)
                 (not (Proc35 N1 M1 L1 Z J1))
                 (not (= I1 J1))
                 (not (and (= H1 L1) (= G1 N1)))
                 (not (Proc42 G1 M1 H1 Z I1 O1))
                 (= O1 0)
                 (not (= F1 H1))
                 (not (and (= E1 I1) (= D1 G1)))
                 a!1))
        (a!3 (or (= K1 0)
                 (not (Proc35 N1 M1 L1 Z V))
                 (not (= I1 V))
                 (not (and (= H1 L1) (= G1 N1)))
                 (not (Proc42 G1 M1 H1 Z I1 O1))
                 (= O1 0)
                 (not (= F1 H1))
                 (not (and (= E1 I1) (= D1 G1)))
                 a!1))
        (a!4 (or (= K1 0)
                 (not (Proc35 N1 M1 L1 Z U))
                 (not (= I1 U))
                 (not (and (= H1 L1) (= G1 N1)))
                 (not (Proc42 G1 M1 H1 Z I1 O1))
                 (= O1 0)
                 (not (= F1 H1))
                 (not (and (= E1 I1) (= D1 G1)))
                 a!1))
        (a!5 (or (= K1 0)
                 (not (Proc35 N1 M1 L1 Z T))
                 (not (= I1 T))
                 (not (and (= H1 L1) (= G1 N1)))
                 (not (Proc42 G1 M1 H1 Z I1 O1))
                 (= O1 0)
                 (not (= F1 H1))
                 (not (and (= E1 I1) (= D1 G1)))
                 a!1))
        (a!6 (or (= K1 0)
                 (not (Proc35 N1 M1 L1 Z S))
                 (not (= I1 S))
                 (not (and (= H1 L1) (= G1 N1)))
                 (not (Proc42 G1 M1 H1 Z I1 O1))
                 (= O1 0)
                 (not (= F1 H1))
                 (not (and (= E1 I1) (= D1 G1)))
                 a!1))
        (a!7 (or (= K1 0)
                 (not (Proc35 N1 M1 L1 Z R))
                 (not (= I1 R))
                 (not (and (= H1 L1) (= G1 N1)))
                 (not (Proc42 G1 M1 H1 Z I1 O1))
                 (= O1 0)
                 (not (= F1 H1))
                 (not (and (= E1 I1) (= D1 G1)))
                 a!1))
        (a!8 (or (= K1 0)
                 (not (Proc35 N1 M1 L1 Z Q))
                 (not (= I1 Q))
                 (not (and (= H1 L1) (= G1 N1)))
                 (not (Proc42 G1 M1 H1 Z I1 O1))
                 (= O1 0)
                 (not (= F1 H1))
                 (not (and (= E1 I1) (= D1 G1)))
                 a!1))
        (a!9 (or (not (Proc35 N1 M1 L1 Z P))
                 (not (= I1 P))
                 (not (and (= H1 L1) (= G1 N1)))
                 (not (Proc42 G1 M1 H1 Z I1 O1))
                 (= O1 0)
                 (not (= F1 H1))
                 (not (and (= E1 I1) (= D1 G1)))
                 a!1))
        (a!10 (or (= K1 0)
                  (not (Proc35 N1 M1 L1 Z O))
                  (not (= I1 O))
                  (not (and (= H1 L1) (= G1 N1)))
                  (not (Proc42 G1 M1 H1 Z I1 O1))
                  (= O1 0)
                  (not (= F1 H1))
                  (not (and (= E1 I1) (= D1 G1)))
                  a!1))
        (a!11 (or (= K1 0)
                  (not (Proc35 N1 M1 L1 Z N))
                  (not (= I1 N))
                  (not (and (= H1 L1) (= G1 N1)))
                  (not (Proc42 G1 M1 H1 Z I1 O1))
                  (= O1 0)
                  (not (= F1 H1))
                  (not (and (= E1 I1) (= D1 G1)))
                  a!1))
        (a!12 (or (= K1 0)
                  (not (Proc35 N1 M1 L1 Z M))
                  (not (= I1 M))
                  (not (and (= H1 L1) (= G1 N1)))
                  (not (Proc42 G1 M1 H1 Z I1 O1))
                  (= O1 0)
                  (not (= F1 H1))
                  (not (and (= E1 I1) (= D1 G1)))
                  a!1))
        (a!13 (or (not (Proc35 N1 M1 L1 Z L))
                  (not (= I1 L))
                  (not (and (= H1 L1) (= G1 N1)))
                  (not (Proc42 G1 M1 H1 Z I1 O1))
                  (= O1 0)
                  (not (= F1 H1))
                  (not (and (= E1 I1) (= D1 G1)))
                  a!1))
        (a!14 (or (= K1 0)
                  (not (Proc35 N1 M1 L1 Z K))
                  (not (= I1 K))
                  (not (and (= H1 L1) (= G1 N1)))
                  (not (Proc42 G1 M1 H1 Z I1 O1))
                  (= O1 0)
                  (not (= F1 H1))
                  (not (and (= E1 I1) (= D1 G1)))
                  a!1))
        (a!15 (or (not (and (= G 1) (= F1 G) (= E1 F) (= D1 H))) a!1))
        (a!17 (or a!16
                  (not (Proc42 G1 M1 H1 Z I1 O1))
                  (= O1 0)
                  (not (= F1 H1))
                  (not (and (= E1 I1) (= D1 G1)))
                  a!1))
        (a!18 (or (= K1 0)
                  (not (Proc35 N1 M1 L1 Z E))
                  (not (= I1 E))
                  (not (and (= H1 L1) (= G1 N1)))
                  (not (Proc42 G1 M1 H1 Z I1 O1))
                  (= O1 0)
                  (not (= F1 H1))
                  (not (and (= E1 I1) (= D1 G1)))
                  a!1))
        (a!19 (or (not (Proc35 N1 M1 L1 Z D))
                  (not (= I1 D))
                  (not (and (= H1 L1) (= G1 N1)))
                  (not (Proc42 G1 M1 H1 Z I1 O1))
                  (= O1 0)
                  (not (= F1 H1))
                  (not (and (= E1 I1) (= D1 G1)))
                  a!1))
        (a!20 (or (= K1 0)
                  (not (Proc35 N1 M1 L1 Z C))
                  (not (= I1 C))
                  (not (and (= H1 L1) (= G1 N1)))
                  (not (Proc42 G1 M1 H1 Z I1 O1))
                  (= O1 0)
                  (not (= F1 H1))
                  (not (and (= E1 I1) (= D1 G1)))
                  a!1))
        (a!21 (or (not (= B 1))
                  (= B 0)
                  (= K1 0)
                  (not (Proc35 N1 M1 L1 Z C))
                  (not (= I1 C))
                  (not (and (= H1 L1) (= G1 N1)))
                  (not (Proc42 G1 M1 H1 Z I1 O1))
                  (= O1 0)
                  (not (= F1 H1))
                  (not (and (= E1 I1) (= D1 G1)))
                  a!1)))
  (let ((a!22 (and (or (= K1 0) (and a!20 a!21))
                   (or (not (= A 1)) (= A 0) (= K1 0) (and a!20 a!21)))))
  (let ((a!23 (and a!2
                   a!3
                   a!4
                   a!5
                   a!6
                   a!7
                   a!8
                   a!9
                   a!10
                   a!11
                   a!12
                   a!13
                   a!14
                   (or (= K1 0)
                       (not (Proc43 N1 M1 L1 Z O1))
                       (not (Proc10 N1 M1 L1 Z J O1 I H G))
                       (and a!15 a!17))
                   a!18
                   a!19
                   (or (= K1 0) a!22))))
  (let ((a!24 (not (or (not Z)
                       (= O1 0)
                       (not (Proc40 N1 M1 L1 Z O1))
                       (= K1 0)
                       (not (Proc41 N1 M1 L1 Z))
                       a!23))))
    (=> a!24 (Proc44 N1 M1 L1 Z J O1 Y X W)))))))))
(assert (forall ((A Int) (B Int) (C Int) (D Int) (E Int) (F Int) (Z Bool))
  (let ((a!1 (not (or (not Z)
                      (not (Proc45 F E D Z))
                      (not (Proc35 F E D Z C))
                      (not (Proc46 F E D Z))))))
    (=> a!1 (Proc47 F E D Z B A)))))
(assert (forall ((A Int)
         (B Int)
         (C Int)
         (D Int)
         (E Int)
         (F Int)
         (G Int)
         (H Int)
         (Z Bool))
  (let ((a!1 (or (not (= C 1)) (not (and (= B D) (= A C)))))
        (a!2 (or (= C 1) (not (and (= B D) (= A C))))))
  (let ((a!3 (not (or (not Z) (not (Proc12 H G F Z E D C)) (and a!1 a!2)))))
    (=> a!3 (Proc48 H G F Z E B A))))))
(assert (forall ((A Int) (B Int) (C Int) (D Int) (E Int) (Z Bool))
  (=> (not (or (not Z) (= E 0) (= D 0))) (Proc43 C B A Z E))))
(assert (forall ((A Int) (B Int) (C Int) (D Int) (Z Bool))
  (=> (not (or (not Z) (= D 0))) (Proc40 C B A Z D))))
(assert (forall ((A Int) (B Int) (C Int) (Z Bool)) (=> Z (Proc3 C B A Z))))
(assert (forall ((A Int)
         (B Int)
         (C Int)
         (D Int)
         (E Int)
         (F Int)
         (G Int)
         (H Int)
         (I Int)
         (J Int)
         (K Int)
         (L Int)
         (M Int)
         (N Int)
         (O Int)
         (P Int)
         (Q Int)
         (R Int)
         (S Int)
         (T Int)
         (U Int)
         (V Int)
         (W Int)
         (X Int)
         (Y Int)
         (Z Bool)
         (D1 Int)
         (E1 Int)
         (F1 Int)
         (G1 Int)
         (H1 Int)
         (I1 Int)
         (J1 Int)
         (K1 Int)
         (L1 Int)
         (M1 Int)
         (N1 Int)
         (O1 Int)
         (P1 Int)
         (Q1 Int)
         (R1 Int))
  (let ((a!1 (and (not (<= P1 (+ 12 R1))) (not (<= P1 Q1))))
        (a!2 (or (not (= S 1))
                 (not (and (= R S) (= Q T)))
                 (not (and (= P Q) (= O R)))))
        (a!3 (or (= S 1)
                 (not (and (= R S) (= Q T)))
                 (not (and (= P Q) (= O R)))))
        (a!4 (or (not (= M1 0))
                 (not (and (= R N1) (= Q P1)))
                 (not (and (= P Q) (= O R)))))
        (a!5 (or (= L1 0)
                 (not (Proc49 P1 O1 N1 Z))
                 (not (Proc47 P1 O1 N1 Z N M))
                 (not (and (= R N1) (= Q P1)))
                 (not (and (= P Q) (= O R)))))
        (a!6 (or (not (= L1 0))
                 (not (and (= R N1) (= Q P1)))
                 (not (and (= P Q) (= O R)))))
        (a!7 (or (not (and (= R N1) (= Q P1))) (not (and (= P Q) (= O R)))))
        (a!8 (or (not (= I 1))
                 (not (and (= R I) (= Q J)))
                 (not (and (= P Q) (= O R)))))
        (a!9 (or (= I 1)
                 (not (and (= R I) (= Q J)))
                 (not (and (= P Q) (= O R)))))
        (a!10 (or (not (= D 1))
                  (not (and (= R D) (= Q E)))
                  (not (and (= P Q) (= O R)))))
        (a!11 (or (= D 1)
                  (not (and (= R D) (= Q E)))
                  (not (and (= P Q) (= O R)))))
        (a!12 (or (not (= A 1))
                  (not (and (= R A) (= Q B)))
                  (not (and (= P Q) (= O R)))))
        (a!13 (or (= A 1)
                  (not (and (= R A) (= Q B)))
                  (not (and (= P Q) (= O R))))))
  (let ((a!14 (and (or (= M1 0)
                       (not (Proc49 P1 O1 N1 Z))
                       (not (Proc44 P1 O1 N1 Z W V U T S))
                       (and a!2 a!3))
                   a!4
                   a!5
                   a!6
                   a!7
                   (or (not (Proc2 P1 O1 N1 Z L R1 K J I)) (and a!8 a!9))
                   (or (not (Proc39 P1 O1 N1 Z H G F E D)) (and a!10 a!11))
                   (or (not (Proc48 P1 O1 N1 Z C B A)) (and a!12 a!13)))))
  (let ((a!15 (not (or (not Z)
                       (not (= R1 Q1))
                       (not a!1)
                       (not (Proc26 P1 O1 N1 Z M1))
                       (not (Proc33 P1 O1 N1 Z L1))
                       (not (Proc27 P1 O1 N1 Z K1))
                       (not (Proc32 P1 O1 N1 Z J1))
                       (not (Proc25 P1 O1 N1 Z I1))
                       (not (Proc29 P1 O1 N1 Z H1))
                       (not (Proc36 P1 O1 N1 Z G1))
                       (not (Proc34 P1 O1 N1 Z F1))
                       (not (Proc24 P1 O1 N1 Z E1))
                       (not (Proc30 P1 O1 N1 Z D1))
                       (not (Proc31 P1 O1 N1 Z Y))
                       (not (Proc28 P1 O1 N1 Z X))
                       a!14))))
    (=> a!15 (Proc22 Q1 O1 N1 Z P O)))))))
(assert (forall ((A Int) (B Int) (C Int) (Z Bool)) (=> Z (Proc37 C B A Z))))
(assert (forall ((A Int) (B Int) (C Int) (Z Bool)) (=> Z (Proc38 C B A Z))))
(assert (forall ((A Int) (B Int) (C Int) (Z Bool)) (=> Z (Proc41 C B A Z))))
(assert (forall ((A Int) (B Int) (C Int) (D Int) (E Int) (Z Bool))
  (=> Z (Proc42 E D C Z B A))))
(assert (forall ((A Int) (B Int) (C Int) (Z Bool)) (=> Z (Proc49 C B A Z))))
(assert (forall ((A Int) (B Int) (C Int) (Z Bool)) (=> Z (Proc45 C B A Z))))
(assert (forall ((A Int) (B Int) (C Int) (Z Bool)) (=> Z (Proc46 C B A Z))))
(assert (forall ((A Int)
         (B Int)
         (C Int)
         (D Int)
         (E Int)
         (F Int)
         (G Int)
         (H Int)
         (I Int)
         (J Int)
         (K Int)
         (L Int)
         (M Int)
         (N Int)
         (O Int)
         (P Int)
         (Q Int)
         (R Int)
         (S Int)
         (T Int)
         (U Int)
         (V Int)
         (W Int)
         (X Int)
         (Y Int)
         (Z Bool)
         (D1 Int)
         (E1 Int)
         (F1 Int)
         (G1 Int)
         (H1 Int)
         (I1 Int)
         (J1 Int)
         (K1 Int)
         (L1 Int)
         (M1 Int)
         (N1 Int)
         (O1 Int)
         (P1 Int)
         (Q1 Int)
         (R1 Int)
         (S1 Int)
         (T1 Int)
         (U1 Int)
         (V1 Int)
         (W1 Int)
         (X1 Int)
         (Y1 Int)
         (Z1 Int)
         (A2 Int)
         (B2 Int)
         (C2 Int)
         (D2 Int)
         (E2 Int)
         (F2 Int)
         (G2 Int)
         (H2 Int))
  (let ((a!1 (and (= H2 G2) (not (<= F2 (+ 4 H2)))))
        (a!2 (and (not (<= F2 G2))
                  (= E2 F2)
                  (not (<= D2 (+ 332 E2)))
                  (not (<= D2 F2))))
        (a!3 (and (= C2 D2)
                  (not (<= B2 (+ 4 C2)))
                  (not (<= B2 D2))
                  (= A2 B2)
                  (not (<= Z1 (+ 536 A2)))
                  (not (<= Z1 B2))
                  (= Y1 Z1)
                  (not (<= X1 (+ 240 Y1)))))
        (a!4 (and (not (<= X1 Z1))
                  (= W1 X1)
                  (not (<= V1 (+ 240 W1)))
                  (not (<= V1 X1))
                  (= U1 V1)
                  (not (<= T1 (+ 536 U1)))
                  (not (<= T1 V1))
                  (= S1 T1)
                  (not (<= R1 (+ 240 S1)))
                  (not (<= R1 T1))
                  (= Q1 R1)
                  (not (<= P1 (+ 4 Q1)))
                  (not (<= P1 R1))
                  (= O1 P1)
                  (not (<= N1 (+ 536 O1)))
                  (not (<= N1 P1))
                  (= M1 N1)
                  (not (<= L1 (+ 332 M1)))
                  (not (<= L1 N1))
                  (= K1 L1)
                  (not (<= J1 (+ 240 K1)))
                  (not (<= J1 L1))
                  (= I1 J1)
                  (not (<= H1 (+ 240 I1)))
                  (not (<= H1 J1))
                  (= G1 H1)
                  (not (<= F1 (+ 332 G1)))
                  (not (<= F1 H1))
                  (= E1 F1)
                  (not (<= D1 (+ 4 E1)))
                  (not (<= D1 F1))
                  (= Y D1)
                  (not (<= X (+ 68 Y)))
                  (not (<= X D1))
                  (= W X)
                  (not (<= V (+ 536 W)))
                  (not (<= V X))
                  (= U V)
                  (not (<= T (+ 240 U)))
                  (not (<= T V))
                  (= S T)
                  (not (<= R (+ 240 S)))
                  (not (<= R T))
                  (= Q R)
                  (not (<= P (+ 240 Q)))
                  (not (<= P R))
                  (= O P)
                  (not (<= N (+ 240 O)))
                  (not (<= N P))
                  (= M N)
                  (not (<= L (+ 240 M)))
                  (not (<= L N))
                  (= K L)
                  (not (<= J (+ 40 K)))
                  (not (<= J L))
                  (= I J)
                  (not (<= H (+ 332 I)))
                  (not (<= H J))
                  (= G H)
                  (not (<= F (+ 4 G)))
                  (not (<= F H))
                  (= E F)
                  (not (<= D (+ 40 E)))
                  (not (<= D F)))))
  (let ((a!5 (not (or (not Z)
                      (not a!1)
                      (not a!2)
                      (not a!3)
                      (not a!4)
                      (not (= C D))))))
    (=> a!5 (Proc21 G2 B A Z C))))))
(assert (forall ((A Int)
         (B Int)
         (C Int)
         (D Int)
         (E Int)
         (F Int)
         (G Int)
         (H Int)
         (I Int)
         (J Int)
         (K Int)
         (Z Bool)
         (A1 Bool)
         (B1 Bool))
  (let ((a!1 (or (not B1) (not (and (Proc23 K J I true H G F A1 E) (not A1))))))
    (=> (not a!1) (Proc50 K J I B1 D Z C B A)))))
(assert (let ((a!1 (exists ((V0 Int)
                    (V1 Int)
                    (V2 Int)
                    (V3 Bool)
                    (V4 Int)
                    (V5 Bool)
                    (V6 Int)
                    (V7 Int)
                    (V8 Int))
             (not (=> (and (Proc50 V0 V1 V2 V3 V4 V5 V6 V7 V8) (not false))
                      false)))))
  (not a!1)))

(check-sat)
